N = 288;
M = 1260;
Edge_Start = [1, 1, 1, 2, 2, 2, 3, 4, 5, 6, 7, 8, 9, 9, 9, 10, 10, 11, 12, 13, 14, 14, 15, 15, 15, 16, 17, 18, 19, 19, 19, 20, 21, 21, 21, 22, 22, 22, 23, 24, 25, 26, 26, 26, 27, 27, 27, 28, 29, 30, 30, 30, 31, 31, 31, 32, 32, 32, 33, 34, 34, 34, 34, 35, 35, 35, 36, 36, 36, 37, 37, 37, 38, 39, 39, 39, 40, 40, 40, 41, 41, 41, 42, 42, 42, 43, 43, 43, 44, 44, 44, 45, 45, 45, 46, 47, 47, 47, 48, 49, 49, 50, 51, 51, 51, 52, 52, 52, 53, 53, 53, 54, 54, 54, 55, 55, 55, 56, 56, 56, 57, 57, 57, 58, 58, 58, 59, 59, 59, 60, 60, 60, 61, 61, 61, 62, 63, 63, 64, 65, 65, 65, 66, 66, 66, 67, 67, 67, 68, 68, 68, 69, 69, 69, 70, 70, 70, 71, 71, 72, 72, 73, 73, 73, 74, 74, 75, 76, 76, 77, 77, 77, 78, 78, 78, 79, 80, 80, 80, 81, 81, 81, 82, 82, 82, 83, 83, 84, 85, 85, 86, 86, 87, 87, 87, 88, 88, 89, 89, 89, 90, 90, 90, 91, 91, 91, 92, 92, 93, 93, 93, 94, 94, 94, 95, 96, 96, 96, 97, 97, 97, 97, 98, 98, 98, 99, 99, 99, 100, 100, 100, 101, 101, 101, 102, 102, 102, 103, 103, 103, 104, 104, 104, 105, 105, 105, 106, 106, 106, 107, 107, 107, 107, 108, 108, 108, 109, 109, 109, 110, 110, 110, 111, 111, 111, 112, 113, 114, 114, 114, 115, 115, 115, 115, 116, 116, 116, 117, 117, 117, 118, 119, 119, 119, 120, 120, 121, 121, 121, 122, 122, 123, 123, 123, 124, 124, 125, 125, 125, 125, 126, 127, 128, 128, 128, 129, 130, 131, 132, 132, 132, 133, 134, 135, 136, 136, 137, 137, 137, 137, 138, 138, 138, 139, 139, 139, 139, 140, 140, 140, 141, 142, 142, 142, 143, 143, 143, 144, 144, 144, 145, 146, 147, 147, 148, 148, 148, 149, 149, 149, 150, 150, 150, 151, 151, 151, 152, 152, 152, 153, 153, 154, 154, 155, 155, 155, 156, 156, 157, 157, 157, 158, 159, 159, 159, 159, 160, 160, 161, 162, 162, 163, 164, 164, 165, 165, 166, 167, 168, 168, 169, 170, 170, 170, 171, 171, 171, 172, 172, 172, 173, 174, 174, 174, 175, 175, 175, 176, 176, 176, 177, 178, 178, 178, 178, 179, 179, 179, 180, 180, 181, 181, 181, 182, 182, 182, 183, 184, 185, 186, 186, 186, 186, 187, 187, 188, 189, 189, 190, 190, 191, 191, 191, 192, 193, 193, 193, 194, 195, 196, 197, 198, 198, 198, 199, 200, 200, 200, 201, 202, 203, 203, 203, 204, 204, 205, 206, 207, 208, 208, 208, 209, 209, 209, 210, 210, 211, 212, 212, 213, 214, 215, 215, 215, 216, 217, 217, 217, 217, 218, 219, 219, 220, 221, 221, 221, 222, 222, 222, 223, 223, 224, 224, 224, 225, 226, 226, 226, 227, 227, 228, 228, 229, 229, 230, 231, 232, 232, 233, 233, 233, 234, 235, 236, 236, 236, 237, 238, 238, 238, 239, 239, 239, 240, 240, 240, 241, 241, 241, 242, 242, 243, 243, 243, 244, 244, 244, 245, 246, 246, 246, 247, 247, 247, 248, 248, 248, 248, 249, 249, 249, 250, 250, 250, 250, 251, 252, 252, 253, 254, 254, 255, 255, 255, 256, 256, 256, 256, 257, 258, 259, 259, 259, 260, 261, 262, 262, 263, 263, 264, 264, 265, 266, 267, 268, 268, 269, 270, 270, 271, 272, 273, 273, 274, 274, 275, 275, 276, 276, 277, 277, 278, 278, 279, 279, 279, 280, 281, 282, 283, 284, 284, 285, 285, 285, 286, 287, 287, 287, 288, 57, 63, 65, 4, 117, 224, 45, 2, 150, 186, 9, 166, 7, 123, 224, 219, 266, 32, 264, 53, 12, 253, 136, 147, 270, 226, 249, 122, 70, 198, 231, 14, 82, 143, 144, 24, 215, 234, 229, 22, 158, 98, 152, 255, 157, 170, 179, 54, 94, 31, 32, 279, 30, 45, 97, 11, 30, 67, 97, 36, 200, 236, 256, 36, 39, 256, 34, 35, 37, 36, 39, 40, 217, 35, 37, 250, 37, 41, 250, 40, 43, 248, 145, 171, 178, 41, 137, 247, 102, 111, 130, 3, 31, 171, 23, 82, 83, 148, 54, 159, 192, 57, 66, 77, 221, 53, 77, 173, 13, 52, 55, 28, 48, 56, 53, 59, 193, 54, 94, 273, 1, 50, 200, 181, 185, 191, 55, 191, 287, 67, 156, 284, 99, 100, 108, 222, 1, 73, 154, 1, 73, 200, 51, 68, 222, 32, 60, 77, 66, 156, 232, 70, 244, 249, 19, 69, 257, 72, 225, 194, 277, 63, 65, 120, 137, 247, 76, 75, 191, 51, 52, 67, 85, 87, 128, 80, 79, 115, 186, 90, 98, 236, 21, 47, 144, 47, 165, 115, 78, 124, 140, 275, 78, 179, 187, 133, 151, 139, 143, 148, 81, 93, 104, 155, 196, 224, 188, 263, 90, 96, 282, 29, 56, 113, 125, 93, 99, 114, 31, 33, 125, 178, 26, 81, 256, 61, 96, 139, 61, 101, 148, 100, 103, 165, 44, 103, 177, 101, 102, 110, 90, 105, 114, 104, 106, 116, 105, 107, 121, 106, 108, 111, 121, 61, 107, 109, 108, 110, 129, 103, 109, 134, 44, 107, 236, 283, 94, 96, 104, 116, 80, 84, 133, 268, 105, 114, 121, 2, 123, 132, 119, 118, 182, 221, 73, 189, 106, 107, 116, 18, 137, 9, 117, 125, 64, 85, 95, 97, 123, 132, 138, 252, 78, 85, 161, 109, 44, 246, 117, 125, 178, 115, 110, 225, 15, 272, 43, 74, 122, 189, 126, 147, 209, 89, 99, 140, 149, 86, 139, 142, 142, 140, 141, 144, 21, 89, 146, 21, 82, 142, 42, 143, 15, 138, 47, 89, 100, 139, 150, 174, 5, 149, 172, 88, 208, 265, 26, 153, 160, 152, 202, 46, 170, 91, 195, 287, 60, 68, 27, 159, 170, 204, 49, 157, 215, 217, 152, 163, 128, 164, 276, 160, 162, 237, 101, 207, 214, 168, 167, 252, 178, 27, 154, 157, 42, 45, 176, 150, 174, 175, 52, 149, 172, 175, 172, 174, 201, 171, 209, 210, 102, 42, 97, 132, 169, 27, 87, 217, 246, 249, 58, 198, 288, 119, 190, 193, 221, 186, 58, 6, 80, 184, 269, 87, 124, 92, 120, 137, 182, 243, 58, 59, 76, 49, 55, 182, 203, 206, 155, 91, 245, 19, 181, 203, 246, 34, 57, 65, 175, 153, 193, 198, 243, 8, 207, 136, 197, 177, 151, 205, 210, 138, 176, 211, 176, 205, 209, 71, 217, 219, 223, 22, 159, 227, 228, 38, 159, 179, 212, 244, 10, 20, 260, 51, 119, 183, 62, 66, 232, 72, 135, 2, 9, 91, 187, 16, 230, 269, 215, 216, 226, 230, 216, 227, 271, 19, 68, 222, 241, 259, 267, 22, 258, 34, 81, 111, 164, 241, 242, 250, 240, 255, 256, 239, 241, 259, 233, 238, 240, 238, 248, 190, 203, 244, 69, 218, 243, 86, 131, 180, 199, 43, 74, 248, 41, 242, 247, 250, 17, 69, 180, 39, 40, 238, 248, 264, 127, 235, 212, 12, 253, 26, 239, 259, 34, 35, 98, 239, 70, 254, 233, 240, 255, 83, 262, 168, 261, 220, 277, 251, 262, 151, 10, 233, 115, 208, 186, 15, 276, 25, 270, 56, 274, 268, 272, 92, 277, 162, 273, 263, 278, 71, 112, 30, 281, 285, 285, 279, 93, 213, 60, 285, 279, 280, 284, 287, 59, 155, 286, 181];
Edge_End = [57, 63, 65, 4, 117, 224, 45, 2, 150, 186, 9, 166, 7, 123, 224, 219, 266, 32, 264, 53, 12, 253, 136, 147, 270, 226, 249, 122, 70, 198, 231, 14, 82, 143, 144, 24, 215, 234, 229, 22, 158, 98, 152, 255, 157, 170, 179, 54, 94, 31, 32, 279, 30, 45, 97, 11, 30, 67, 97, 36, 200, 236, 256, 36, 39, 256, 34, 35, 37, 36, 39, 40, 217, 35, 37, 250, 37, 41, 250, 40, 43, 248, 145, 171, 178, 41, 137, 247, 102, 111, 130, 3, 31, 171, 23, 82, 83, 148, 54, 159, 192, 57, 66, 77, 221, 53, 77, 173, 13, 52, 55, 28, 48, 56, 53, 59, 193, 54, 94, 273, 1, 50, 200, 181, 185, 191, 55, 191, 287, 67, 156, 284, 99, 100, 108, 222, 1, 73, 154, 1, 73, 200, 51, 68, 222, 32, 60, 77, 66, 156, 232, 70, 244, 249, 19, 69, 257, 72, 225, 194, 277, 63, 65, 120, 137, 247, 76, 75, 191, 51, 52, 67, 85, 87, 128, 80, 79, 115, 186, 90, 98, 236, 21, 47, 144, 47, 165, 115, 78, 124, 140, 275, 78, 179, 187, 133, 151, 139, 143, 148, 81, 93, 104, 155, 196, 224, 188, 263, 90, 96, 282, 29, 56, 113, 125, 93, 99, 114, 31, 33, 125, 178, 26, 81, 256, 61, 96, 139, 61, 101, 148, 100, 103, 165, 44, 103, 177, 101, 102, 110, 90, 105, 114, 104, 106, 116, 105, 107, 121, 106, 108, 111, 121, 61, 107, 109, 108, 110, 129, 103, 109, 134, 44, 107, 236, 283, 94, 96, 104, 116, 80, 84, 133, 268, 105, 114, 121, 2, 123, 132, 119, 118, 182, 221, 73, 189, 106, 107, 116, 18, 137, 9, 117, 125, 64, 85, 95, 97, 123, 132, 138, 252, 78, 85, 161, 109, 44, 246, 117, 125, 178, 115, 110, 225, 15, 272, 43, 74, 122, 189, 126, 147, 209, 89, 99, 140, 149, 86, 139, 142, 142, 140, 141, 144, 21, 89, 146, 21, 82, 142, 42, 143, 15, 138, 47, 89, 100, 139, 150, 174, 5, 149, 172, 88, 208, 265, 26, 153, 160, 152, 202, 46, 170, 91, 195, 287, 60, 68, 27, 159, 170, 204, 49, 157, 215, 217, 152, 163, 128, 164, 276, 160, 162, 237, 101, 207, 214, 168, 167, 252, 178, 27, 154, 157, 42, 45, 176, 150, 174, 175, 52, 149, 172, 175, 172, 174, 201, 171, 209, 210, 102, 42, 97, 132, 169, 27, 87, 217, 246, 249, 58, 198, 288, 119, 190, 193, 221, 186, 58, 6, 80, 184, 269, 87, 124, 92, 120, 137, 182, 243, 58, 59, 76, 49, 55, 182, 203, 206, 155, 91, 245, 19, 181, 203, 246, 34, 57, 65, 175, 153, 193, 198, 243, 8, 207, 136, 197, 177, 151, 205, 210, 138, 176, 211, 176, 205, 209, 71, 217, 219, 223, 22, 159, 227, 228, 38, 159, 179, 212, 244, 10, 20, 260, 51, 119, 183, 62, 66, 232, 72, 135, 2, 9, 91, 187, 16, 230, 269, 215, 216, 226, 230, 216, 227, 271, 19, 68, 222, 241, 259, 267, 22, 258, 34, 81, 111, 164, 241, 242, 250, 240, 255, 256, 239, 241, 259, 233, 238, 240, 238, 248, 190, 203, 244, 69, 218, 243, 86, 131, 180, 199, 43, 74, 248, 41, 242, 247, 250, 17, 69, 180, 39, 40, 238, 248, 264, 127, 235, 212, 12, 253, 26, 239, 259, 34, 35, 98, 239, 70, 254, 233, 240, 255, 83, 262, 168, 261, 220, 277, 251, 262, 151, 10, 233, 115, 208, 186, 15, 276, 25, 270, 56, 274, 268, 272, 92, 277, 162, 273, 263, 278, 71, 112, 30, 281, 285, 285, 279, 93, 213, 60, 285, 279, 280, 284, 287, 59, 155, 286, 181, 1, 1, 1, 2, 2, 2, 3, 4, 5, 6, 7, 8, 9, 9, 9, 10, 10, 11, 12, 13, 14, 14, 15, 15, 15, 16, 17, 18, 19, 19, 19, 20, 21, 21, 21, 22, 22, 22, 23, 24, 25, 26, 26, 26, 27, 27, 27, 28, 29, 30, 30, 30, 31, 31, 31, 32, 32, 32, 33, 34, 34, 34, 34, 35, 35, 35, 36, 36, 36, 37, 37, 37, 38, 39, 39, 39, 40, 40, 40, 41, 41, 41, 42, 42, 42, 43, 43, 43, 44, 44, 44, 45, 45, 45, 46, 47, 47, 47, 48, 49, 49, 50, 51, 51, 51, 52, 52, 52, 53, 53, 53, 54, 54, 54, 55, 55, 55, 56, 56, 56, 57, 57, 57, 58, 58, 58, 59, 59, 59, 60, 60, 60, 61, 61, 61, 62, 63, 63, 64, 65, 65, 65, 66, 66, 66, 67, 67, 67, 68, 68, 68, 69, 69, 69, 70, 70, 70, 71, 71, 72, 72, 73, 73, 73, 74, 74, 75, 76, 76, 77, 77, 77, 78, 78, 78, 79, 80, 80, 80, 81, 81, 81, 82, 82, 82, 83, 83, 84, 85, 85, 86, 86, 87, 87, 87, 88, 88, 89, 89, 89, 90, 90, 90, 91, 91, 91, 92, 92, 93, 93, 93, 94, 94, 94, 95, 96, 96, 96, 97, 97, 97, 97, 98, 98, 98, 99, 99, 99, 100, 100, 100, 101, 101, 101, 102, 102, 102, 103, 103, 103, 104, 104, 104, 105, 105, 105, 106, 106, 106, 107, 107, 107, 107, 108, 108, 108, 109, 109, 109, 110, 110, 110, 111, 111, 111, 112, 113, 114, 114, 114, 115, 115, 115, 115, 116, 116, 116, 117, 117, 117, 118, 119, 119, 119, 120, 120, 121, 121, 121, 122, 122, 123, 123, 123, 124, 124, 125, 125, 125, 125, 126, 127, 128, 128, 128, 129, 130, 131, 132, 132, 132, 133, 134, 135, 136, 136, 137, 137, 137, 137, 138, 138, 138, 139, 139, 139, 139, 140, 140, 140, 141, 142, 142, 142, 143, 143, 143, 144, 144, 144, 145, 146, 147, 147, 148, 148, 148, 149, 149, 149, 150, 150, 150, 151, 151, 151, 152, 152, 152, 153, 153, 154, 154, 155, 155, 155, 156, 156, 157, 157, 157, 158, 159, 159, 159, 159, 160, 160, 161, 162, 162, 163, 164, 164, 165, 165, 166, 167, 168, 168, 169, 170, 170, 170, 171, 171, 171, 172, 172, 172, 173, 174, 174, 174, 175, 175, 175, 176, 176, 176, 177, 178, 178, 178, 178, 179, 179, 179, 180, 180, 181, 181, 181, 182, 182, 182, 183, 184, 185, 186, 186, 186, 186, 187, 187, 188, 189, 189, 190, 190, 191, 191, 191, 192, 193, 193, 193, 194, 195, 196, 197, 198, 198, 198, 199, 200, 200, 200, 201, 202, 203, 203, 203, 204, 204, 205, 206, 207, 208, 208, 208, 209, 209, 209, 210, 210, 211, 212, 212, 213, 214, 215, 215, 215, 216, 217, 217, 217, 217, 218, 219, 219, 220, 221, 221, 221, 222, 222, 222, 223, 223, 224, 224, 224, 225, 226, 226, 226, 227, 227, 228, 228, 229, 229, 230, 231, 232, 232, 233, 233, 233, 234, 235, 236, 236, 236, 237, 238, 238, 238, 239, 239, 239, 240, 240, 240, 241, 241, 241, 242, 242, 243, 243, 243, 244, 244, 244, 245, 246, 246, 246, 247, 247, 247, 248, 248, 248, 248, 249, 249, 249, 250, 250, 250, 250, 251, 252, 252, 253, 254, 254, 255, 255, 255, 256, 256, 256, 256, 257, 258, 259, 259, 259, 260, 261, 262, 262, 263, 263, 264, 264, 265, 266, 267, 268, 268, 269, 270, 270, 271, 272, 273, 273, 274, 274, 275, 275, 276, 276, 277, 277, 278, 278, 279, 279, 279, 280, 281, 282, 283, 284, 284, 285, 285, 285, 286, 287, 287, 287, 288];
L = [1, 1, 1, 1, 1, 1, 1, 1, 1, 1, 1, 1, 1, 1, 1, 1, 1, 1, 1, 1, 1, 1, 1, 1, 1, 1, 1, 1, 1, 1, 1, 1, 1, 1, 1, 1, 1, 1, 1, 1, 1, 1, 1, 1, 1, 1, 1, 1, 1, 1, 1, 1, 1, 1, 1, 1, 1, 1, 1, 1, 1, 1, 1, 1, 1, 1, 1, 1, 1, 1, 1, 1, 1, 1, 1, 1, 1, 1, 1, 1, 1, 1, 1, 1, 1, 1, 1, 1, 1, 1, 1, 1, 1, 1, 1, 1, 1, 1, 1, 1, 1, 1, 1, 1, 1, 1, 1, 1, 1, 1, 1, 1, 1, 1, 1, 1, 1, 1, 1, 1, 1, 1, 1, 1, 1, 1, 1, 1, 1, 1, 1, 1, 1, 1, 1, 1, 1, 1, 1, 1, 1, 1, 1, 1, 1, 1, 1, 1, 1, 1, 1, 1, 1, 1, 1, 1, 1, 1, 1, 1, 1, 1, 1, 1, 1, 1, 1, 1, 1, 1, 1, 1, 1, 1, 1, 1, 1, 1, 1, 1, 1, 1, 1, 1, 1, 1, 1, 1, 1, 1, 1, 1, 1, 1, 1, 1, 1, 1, 1, 1, 1, 1, 1, 1, 1, 1, 1, 1, 1, 1, 1, 1, 1, 1, 1, 1, 1, 1, 1, 1, 1, 1, 1, 1, 1, 1, 1, 1, 1, 1, 1, 1, 1, 1, 1, 1, 1, 1, 1, 1, 1, 1, 1, 1, 1, 1, 1, 1, 1, 1, 1, 1, 1, 1, 1, 1, 1, 1, 1, 1, 1, 1, 1, 1, 1, 1, 1, 1, 1, 1, 1, 1, 1, 1, 1, 1, 1, 1, 1, 1, 1, 1, 1, 1, 1, 1, 1, 1, 1, 1, 1, 1, 1, 1, 1, 1, 1, 1, 1, 1, 1, 1, 1, 1, 1, 1, 1, 1, 1, 1, 1, 1, 1, 1, 1, 1, 1, 1, 1, 1, 1, 1, 1, 1, 1, 1, 1, 1, 1, 1, 1, 1, 1, 1, 1, 1, 1, 1, 1, 1, 1, 1, 1, 1, 1, 1, 1, 1, 1, 1, 1, 1, 1, 1, 1, 1, 1, 1, 1, 1, 1, 1, 1, 1, 1, 1, 1, 1, 1, 1, 1, 1, 1, 1, 1, 1, 1, 1, 1, 1, 1, 1, 1, 1, 1, 1, 1, 1, 1, 1, 1, 1, 1, 1, 1, 1, 1, 1, 1, 1, 1, 1, 1, 1, 1, 1, 1, 1, 1, 1, 1, 1, 1, 1, 1, 1, 1, 1, 1, 1, 1, 1, 1, 1, 1, 1, 1, 1, 1, 1, 1, 1, 1, 1, 1, 1, 1, 1, 1, 1, 1, 1, 1, 1, 1, 1, 1, 1, 1, 1, 1, 1, 1, 1, 1, 1, 1, 1, 1, 1, 1, 1, 1, 1, 1, 1, 1, 1, 1, 1, 1, 1, 1, 1, 1, 1, 1, 1, 1, 1, 1, 1, 1, 1, 1, 1, 1, 1, 1, 1, 1, 1, 1, 1, 1, 1, 1, 1, 1, 1, 1, 1, 1, 1, 1, 1, 1, 1, 1, 1, 1, 1, 1, 1, 1, 1, 1, 1, 1, 1, 1, 1, 1, 1, 1, 1, 1, 1, 1, 1, 1, 1, 1, 1, 1, 1, 1, 1, 1, 1, 1, 1, 1, 1, 1, 1, 1, 1, 1, 1, 1, 1, 1, 1, 1, 1, 1, 1, 1, 1, 1, 1, 1, 1, 1, 1, 1, 1, 1, 1, 1, 1, 1, 1, 1, 1, 1, 1, 1, 1, 1, 1, 1, 1, 1, 1, 1, 1, 1, 1, 1, 1, 1, 1, 1, 1, 1, 1, 1, 1, 1, 1, 1, 1, 1, 1, 1, 1, 1, 1, 1, 1, 1, 1, 1, 1, 1, 1, 1, 1, 1, 1, 1, 1, 1, 1, 1, 1, 1, 1, 1, 1, 1, 1, 1, 1, 1, 1, 1, 1, 1, 1, 1, 1, 1, 1, 1, 1, 1, 1, 1, 1, 1, 1, 1, 1, 1, 1, 1, 1, 1, 1, 1, 1, 1, 1, 1, 1, 1, 1, 1, 1, 1, 1, 1, 1, 1, 1, 1, 1, 1, 1, 1, 1, 1, 1, 1, 1, 1, 1, 1, 1, 1, 1, 1, 1, 1, 1, 1, 1, 1, 1, 1, 1, 1, 1, 1, 1, 1, 1, 1, 1, 1, 1, 1, 1, 1, 1, 1, 1, 1, 1, 1, 1, 1, 1, 1, 1, 1, 1, 1, 1, 1, 1, 1, 1, 1, 1, 1, 1, 1, 1, 1, 1, 1, 1, 1, 1, 1, 1, 1, 1, 1, 1, 1, 1, 1, 1, 1, 1, 1, 1, 1, 1, 1, 1, 1, 1, 1, 1, 1, 1, 1, 1, 1, 1, 1, 1, 1, 1, 1, 1, 1, 1, 1, 1, 1, 1, 1, 1, 1, 1, 1, 1, 1, 1, 1, 1, 1, 1, 1, 1, 1, 1, 1, 1, 1, 1, 1, 1, 1, 1, 1, 1, 1, 1, 1, 1, 1, 1, 1, 1, 1, 1, 1, 1, 1, 1, 1, 1, 1, 1, 1, 1, 1, 1, 1, 1, 1, 1, 1, 1, 1, 1, 1, 1, 1, 1, 1, 1, 1, 1, 1, 1, 1, 1, 1, 1, 1, 1, 1, 1, 1, 1, 1, 1, 1, 1, 1, 1, 1, 1, 1, 1, 1, 1, 1, 1, 1, 1, 1, 1, 1, 1, 1, 1, 1, 1, 1, 1, 1, 1, 1, 1, 1, 1, 1, 1, 1, 1, 1, 1, 1, 1, 1, 1, 1, 1, 1, 1, 1, 1, 1, 1, 1, 1, 1, 1, 1, 1, 1, 1, 1, 1, 1, 1, 1, 1, 1, 1, 1, 1, 1, 1, 1, 1, 1, 1, 1, 1, 1, 1, 1, 1, 1, 1, 1, 1, 1, 1, 1, 1, 1, 1, 1, 1, 1, 1, 1, 1, 1, 1, 1, 1, 1, 1, 1, 1, 1, 1, 1, 1, 1, 1, 1, 1, 1, 1, 1, 1, 1, 1, 1, 1, 1, 1, 1, 1, 1, 1, 1, 1, 1, 1, 1, 1, 1, 1, 1, 1, 1, 1, 1, 1, 1, 1, 1, 1, 1, 1, 1, 1, 1, 1, 1, 1, 1, 1, 1, 1, 1, 1, 1, 1, 1, 1, 1, 1, 1, 1, 1, 1, 1, 1, 1, 1, 1, 1, 1, 1, 1, 1, 1, 1, 1, 1, 1, 1, 1, 1, 1, 1, 1, 1, 1, 1, 1, 1, 1, 1, 1, 1, 1, 1, 1, 1, 1, 1, 1, 1, 1, 1, 1, 1, 1, 1, 1, 1, 1, 1, 1, 1, 1, 1, 1, 1, 1, 1, 1, 1, 1, 1, 1, 1, 1, 1, 1, 1, 1, 1, 1, 1, 1, 1, 1, 1, 1, 1, 1, 1, 1, 1, 1, 1, 1, 1, 1, 1, 1, 1, 1, 1, 1, 1, 1, 1, 1, 1, 1, 1, 1, 1, 1, 1, 1, 1, 1, 1, 1, 1, 1, 1, 1, 1, 1, 1, 1, 1, 1, 1, 1, 1, 1, 1, 1, 1, 1, 1, 1, 1, 1, 1, 1, 1, 1, 1, 1, 1, 1, 1, 1, 1, 1, 1, 1, 1, 1, 1, 1, 1, 1, 1, 1, 1, 1, 1, 1, 1, 1, 1, 1, 1, 1, 1, 1, 1, 1, 1, 1, 1, 1, 1, 1, 1, 1, 1, 1, 1, 1, 1, 1, 1, 1, 1, 1, 1, 1, 1, 1, 1, 1, 1, 1, 1, 1, 1, 1, 1, 1, 1, 1, 1, 1, 1, 1, 1, 1, 1, 1, 1, 1, 1, 1, 1, 1, 1, 1, 1, 1, 1, 1, 1, 1, 1, 1, 1, 1, 1, 1, 1];
T = [1, 1, 1, 1, 1, 1, 1, 1, 1, 1, 1, 1, 1, 1, 1, 1, 1, 1, 1, 1, 1, 1, 1, 1, 1, 1, 1, 1, 1, 1, 1, 1, 1, 1, 1, 1, 1, 1, 1, 1, 1, 1, 1, 1, 1, 1, 1, 1, 1, 1, 1, 1, 1, 1, 1, 1, 1, 1, 1, 1, 1, 1, 1, 1, 1, 1, 1, 1, 1, 1, 1, 1, 1, 1, 1, 1, 1, 1, 1, 1, 1, 1, 1, 1, 1, 1, 1, 1, 1, 1, 1, 1, 1, 1, 1, 1, 1, 1, 1, 1, 1, 1, 1, 1, 1, 1, 1, 1, 1, 1, 1, 1, 1, 1, 1, 1, 1, 1, 1, 1, 1, 1, 1, 1, 1, 1, 1, 1, 1, 1, 1, 1, 1, 1, 1, 1, 1, 1, 1, 1, 1, 1, 1, 1, 1, 1, 1, 1, 1, 1, 1, 1, 1, 1, 1, 1, 1, 1, 1, 1, 1, 1, 1, 1, 1, 1, 1, 1, 1, 1, 1, 1, 1, 1, 1, 1, 1, 1, 1, 1, 1, 1, 1, 1, 1, 1, 1, 1, 1, 1, 1, 1, 1, 1, 1, 1, 1, 1, 1, 1, 1, 1, 1, 1, 1, 1, 1, 1, 1, 1, 1, 1, 1, 1, 1, 1, 1, 1, 1, 1, 1, 1, 1, 1, 1, 1, 1, 1, 1, 1, 1, 1, 1, 1, 1, 1, 1, 1, 1, 1, 1, 1, 1, 1, 1, 1, 1, 1, 1, 1, 1, 1, 1, 1, 1, 1, 1, 1, 1, 1, 1, 1, 1, 1, 1, 1, 1, 1, 1, 1, 1, 1, 1, 1, 1, 1, 1, 1, 1, 1, 1, 1, 1, 1, 1, 1, 1, 1, 1, 1, 1, 1, 1, 1, 1, 1, 1, 1, 1, 1, 1, 1, 1, 1, 1, 1, 1, 1, 1, 1, 1, 1, 1, 1, 1, 1, 1, 1, 1, 1, 1, 1, 1, 1, 1, 1, 1, 1, 1, 1, 1, 1, 1, 1, 1, 1, 1, 1, 1, 1, 1, 1, 1, 1, 1, 1, 1, 1, 1, 1, 1, 1, 1, 1, 1, 1, 1, 1, 1, 1, 1, 1, 1, 1, 1, 1, 1, 1, 1, 1, 1, 1, 1, 1, 1, 1, 1, 1, 1, 1, 1, 1, 1, 1, 1, 1, 1, 1, 1, 1, 1, 1, 1, 1, 1, 1, 1, 1, 1, 1, 1, 1, 1, 1, 1, 1, 1, 1, 1, 1, 1, 1, 1, 1, 1, 1, 1, 1, 1, 1, 1, 1, 1, 1, 1, 1, 1, 1, 1, 1, 1, 1, 1, 1, 1, 1, 1, 1, 1, 1, 1, 1, 1, 1, 1, 1, 1, 1, 1, 1, 1, 1, 1, 1, 1, 1, 1, 1, 1, 1, 1, 1, 1, 1, 1, 1, 1, 1, 1, 1, 1, 1, 1, 1, 1, 1, 1, 1, 1, 1, 1, 1, 1, 1, 1, 1, 1, 1, 1, 1, 1, 1, 1, 1, 1, 1, 1, 1, 1, 1, 1, 1, 1, 1, 1, 1, 1, 1, 1, 1, 1, 1, 1, 1, 1, 1, 1, 1, 1, 1, 1, 1, 1, 1, 1, 1, 1, 1, 1, 1, 1, 1, 1, 1, 1, 1, 1, 1, 1, 1, 1, 1, 1, 1, 1, 1, 1, 1, 1, 1, 1, 1, 1, 1, 1, 1, 1, 1, 1, 1, 1, 1, 1, 1, 1, 1, 1, 1, 1, 1, 1, 1, 1, 1, 1, 1, 1, 1, 1, 1, 1, 1, 1, 1, 1, 1, 1, 1, 1, 1, 1, 1, 1, 1, 1, 1, 1, 1, 1, 1, 1, 1, 1, 1, 1, 1, 1, 1, 1, 1, 1, 1, 1, 1, 1, 1, 1, 1, 1, 1, 1, 1, 1, 1, 1, 1, 1, 1, 1, 1, 1, 1, 1, 1, 1, 1, 1, 1, 1, 1, 1, 1, 1, 1, 1, 1, 1, 1, 1, 1, 1, 1, 1, 1, 1, 1, 1, 1, 1, 1, 1, 1, 1, 1, 1, 1, 1, 1, 1, 1, 1, 1, 1, 1, 1, 1, 1, 1, 1, 1, 1, 1, 1, 1, 1, 1, 1, 1, 1, 1, 1, 1, 1, 1, 1, 1, 1, 1, 1, 1, 1, 1, 1, 1, 1, 1, 1, 1, 1, 1, 1, 1, 1, 1, 1, 1, 1, 1, 1, 1, 1, 1, 1, 1, 1, 1, 1, 1, 1, 1, 1, 1, 1, 1, 1, 1, 1, 1, 1, 1, 1, 1, 1, 1, 1, 1, 1, 1, 1, 1, 1, 1, 1, 1, 1, 1, 1, 1, 1, 1, 1, 1, 1, 1, 1, 1, 1, 1, 1, 1, 1, 1, 1, 1, 1, 1, 1, 1, 1, 1, 1, 1, 1, 1, 1, 1, 1, 1, 1, 1, 1, 1, 1, 1, 1, 1, 1, 1, 1, 1, 1, 1, 1, 1, 1, 1, 1, 1, 1, 1, 1, 1, 1, 1, 1, 1, 1, 1, 1, 1, 1, 1, 1, 1, 1, 1, 1, 1, 1, 1, 1, 1, 1, 1, 1, 1, 1, 1, 1, 1, 1, 1, 1, 1, 1, 1, 1, 1, 1, 1, 1, 1, 1, 1, 1, 1, 1, 1, 1, 1, 1, 1, 1, 1, 1, 1, 1, 1, 1, 1, 1, 1, 1, 1, 1, 1, 1, 1, 1, 1, 1, 1, 1, 1, 1, 1, 1, 1, 1, 1, 1, 1, 1, 1, 1, 1, 1, 1, 1, 1, 1, 1, 1, 1, 1, 1, 1, 1, 1, 1, 1, 1, 1, 1, 1, 1, 1, 1, 1, 1, 1, 1, 1, 1, 1, 1, 1, 1, 1, 1, 1, 1, 1, 1, 1, 1, 1, 1, 1, 1, 1, 1, 1, 1, 1, 1, 1, 1, 1, 1, 1, 1, 1, 1, 1, 1, 1, 1, 1, 1, 1, 1, 1, 1, 1, 1, 1, 1, 1, 1, 1, 1, 1, 1, 1, 1, 1, 1, 1, 1, 1, 1, 1, 1, 1, 1, 1, 1, 1, 1, 1, 1, 1, 1, 1, 1, 1, 1, 1, 1, 1, 1, 1, 1, 1, 1, 1, 1, 1, 1, 1, 1, 1, 1, 1, 1, 1, 1, 1, 1, 1, 1, 1, 1, 1, 1, 1, 1, 1, 1, 1, 1, 1, 1, 1, 1, 1, 1, 1, 1, 1, 1, 1, 1, 1, 1, 1, 1, 1, 1, 1, 1, 1, 1, 1, 1, 1, 1, 1, 1, 1, 1, 1, 1, 1, 1, 1, 1, 1, 1, 1, 1, 1, 1, 1, 1, 1, 1, 1, 1, 1, 1, 1, 1, 1, 1, 1, 1, 1, 1, 1, 1, 1, 1, 1, 1, 1, 1, 1, 1, 1, 1, 1, 1, 1, 1, 1, 1, 1, 1, 1, 1, 1, 1, 1, 1, 1, 1, 1, 1, 1, 1, 1, 1, 1, 1, 1, 1, 1, 1, 1, 1, 1, 1, 1, 1, 1, 1, 1, 1, 1, 1, 1, 1, 1, 1, 1, 1, 1, 1, 1, 1, 1, 1, 1, 1, 1, 1, 1, 1, 1, 1, 1, 1, 1, 1, 1, 1, 1, 1, 1, 1, 1, 1, 1, 1, 1, 1, 1, 1, 1, 1, 1, 1, 1, 1, 1, 1, 1, 1, 1, 1, 1, 1, 1, 1, 1, 1, 1, 1, 1, 1, 1, 1, 1, 1, 1, 1, 1, 1, 1, 1, 1, 1, 1, 1, 1, 1, 1, 1, 1, 1, 1, 1, 1, 1, 1, 1, 1, 1, 1, 1, 1, 1, 1, 1, 1, 1, 1, 1, 1, 1, 1, 1, 1, 1, 1, 1, 1, 1, 1, 1, 1, 1, 1, 1, 1, 1, 1, 1];
Lower_Bound = [8, 35, 32, 36, 7, 24, 37, 26, 36, 14, 35, 16, 39, 15, 30, 22, 46, 13, 43, 14, 7, 18, 17, 19, 23, 7, 15, 36, 36, 33, 32, 34, 34, 5, 7, 6, 7, 16, 8, 8, 9, 31, 10, 4, 31, 16, 5, 36, 17, 8, 37, 37, 38, 35, 39, 34, 7, 42, 40, 36, 2, 40, 9, 14, 7, 38, 35, 38, 44, 44, 10, 11, 8, 12, 43, 42, 36, 14, 25, 24, 5, 6, 6, 26, 14, 6, 13, 29, 5, 6, 37, 8, 5, 35, 35, 4, 33, 6, 3, 3, 3, 3, 2, 5, 4, 3, 2, 1, 0, 1, 3, 10, 36, 5, 25, 4, 34, 40, 39, 9, 3, 12, 35, 13, 34, 32, 21, 15, 1, 5, 48, 33, 26, 2, 30, 29, 11, 31, 4, 5, 7, 6, 6, 7, 32, 7, 31, 4, 5, 6, 28, 8, 9, 15, 38, 37, 16, 24, 16, 9, 16, 33, 10, 34, 4, 27, 20, 19, 33, 16, 30, 7, 38, 6, 7, 29, 4, 32, 14, 46, 43, 40, 39, 24, 43, 23, 12, 9, 10, 41, 41, 18, 40, 12, 39, 38, 14, 42, 48, 6, 8, 10, 41, 25, 28, 13, 5, 27, 30, 28, 31, 16, 12, 28, 17, 19, 15, 44, 13, 10, 38, 39, 29, 36, 11, 21, 18, 20, 18, 21, 44, 39, 10, 19, 21, 4, 35, 10, 7, 8, 9, 11, 42, 43, 15, 47, 11, 10, 45, 9, 18, 20, 16, 23, 8, 6, 45, 22, 9, 11, 19, 18, 9, 17, 29, 15, 11, 26, 22, 31, 22, 30, 33, 34, 7, 32, 8, 9, 34, 36, 35, 6, 11, 36, 35, 40, 39, 44];
Upper_Bound = [8, 35, 32, 36, 7, 24, 37, 26, 36, 14, 35, 16, 39, 15, 30, 22, 46, 13, 43, 14, 7, 18, 17, 19, 23, 7, 15, 36, 36, 33, 32, 34, 34, 5, 7, 6, 7, 16, 8, 8, 9, 31, 10, 4, 31, 16, 5, 36, 17, 8, 37, 37, 38, 35, 39, 34, 7, 42, 40, 36, 2, 40, 9, 14, 7, 38, 35, 38, 44, 44, 10, 11, 8, 12, 43, 42, 36, 14, 25, 24, 5, 6, 6, 26, 14, 6, 13, 29, 5, 6, 37, 8, 5, 35, 35, 4, 33, 6, 3, 3, 3, 3, 2, 5, 4, 3, 2, 1, 0, 1, 3, 10, 36, 5, 25, 4, 34, 40, 39, 9, 3, 12, 35, 13, 34, 32, 21, 15, 1, 5, 48, 33, 26, 2, 30, 29, 11, 31, 4, 5, 7, 6, 6, 7, 32, 7, 31, 4, 5, 6, 28, 8, 9, 15, 38, 37, 16, 24, 16, 9, 16, 33, 10, 34, 4, 27, 20, 19, 33, 16, 30, 7, 38, 6, 7, 29, 4, 32, 14, 46, 43, 40, 39, 24, 43, 23, 12, 9, 10, 41, 41, 18, 40, 12, 39, 38, 14, 42, 48, 6, 8, 10, 41, 25, 28, 13, 5, 27, 30, 28, 31, 16, 12, 28, 17, 19, 15, 44, 13, 10, 38, 39, 29, 36, 11, 21, 18, 20, 18, 21, 44, 39, 10, 19, 21, 4, 35, 10, 7, 8, 9, 11, 42, 43, 15, 47, 11, 10, 45, 9, 18, 20, 16, 23, 8, 6, 45, 22, 9, 11, 19, 18, 9, 17, 29, 15, 11, 26, 22, 31, 22, 30, 33, 34, 7, 32, 8, 9, 34, 36, 35, 6, 11, 36, 35, 40, 39, 44];
Start = 109;
End = 7;
Time = 37;
